p edges 1383 1998
n 1 7e+20
n 2 4e+20
n 3 2e+20
n 4 1e+20
n 5 1e+20
n 6 2e+20
n 7 2e+20
n 8 2e+20
n 9 2e+20
n 10 2e+20
n 11 2e+20
n 12 2e+20
n 13 2e+20
n 14 1e+20
n 15 2e+20
n 16 2e+20
n 17 1e+20
n 18 1e+20
n 19 4e+20
n 20 2e+20
n 21 2e+20
n 22 1e+20
n 23 1e+20
n 24 2e+20
n 25 2e+20
n 26 2e+20
n 27 2e+20
n 28 6e+20
n 29 2e+20
n 30 2e+20
n 31 2e+20
n 32 2e+20
n 33 2e+20
n 34 2e+20
n 35 2e+20
n 36 2e+20
n 37 6e+20
n 38 2e+20
n 39 2e+20
n 40 2e+20
n 41 2e+20
n 42 2e+20
n 43 2e+20
n 44 2e+20
n 45 2e+20
n 46 1e+20
n 47 2e+20
n 48 2e+20
n 49 1e+20
n 50 1e+20
n 51 6e+20
n 52 2e+20
n 53 2e+20
n 54 2e+20
n 55 2e+20
n 56 2e+20
n 57 2e+20
n 58 1e+20
n 59 2e+20
n 60 1e+20
n 61 1e+20
n 62 1e+20
n 63 2e+20
n 64 2e+20
n 65 1e+20
n 66 1e+20
n 67 6e+20
n 68 2e+20
n 69 2e+20
n 70 2e+20
n 71 2e+20
n 72 2e+20
n 73 2e+20
n 74 2e+20
n 75 2e+20
n 76 1e+20
n 77 2e+20
n 78 2e+20
n 79 1e+20
n 80 1e+20
n 81 1e+20
n 82 2e+20
n 83 2e+20
n 84 1e+20
n 85 1e+20
n 86 1e+20
n 87 2e+20
n 88 2e+20
n 89 1e+20
n 90 1e+20
n 91 1e+20
n 92 2e+20
n 93 2e+20
n 94 1e+20
n 95 1e+20
n 96 1e+20
n 97 2e+20
n 98 2e+20
n 99 1e+20
n 100 1e+20
n 101 1e+20
n 102 2e+20
n 103 1e+20
n 104 1e+20
n 105 1e+20
n 106 2e+20
n 107 2e+20
n 108 1e+20
n 109 1e+20
n 110 6e+20
n 111 2e+20
n 112 2e+20
n 113 2e+20
n 114 2e+20
n 115 2e+20
n 116 2e+20
n 117 2e+20
n 118 2e+20
n 119 1e+20
n 120 2e+20
n 121 2e+20
n 122 1e+20
n 123 1e+20
n 124 6e+20
n 125 2e+20
n 126 2e+20
n 127 2e+20
n 128 2e+20
n 129 2e+20
n 130 2e+20
n 131 2e+20
n 132 2e+20
n 133 1e+20
n 134 2e+20
n 135 2e+20
n 136 1e+20
n 137 1e+20
n 138 2e+20
n 139 2e+20
n 140 2e+20
n 141 1e+20
n 142 1e+20
n 143 2e+20
n 144 2e+20
n 145 1e+20
n 146 1e+20
n 147 1e+20
n 148 2e+20
n 149 2e+20
n 150 1e+20
n 151 1e+20
n 152 1e+20
n 153 2e+20
n 154 2e+20
n 155 1e+20
n 156 1e+20
n 157 1e+20
n 158 2e+20
n 159 2e+20
n 160 1e+20
n 161 1e+20
n 162 4e+20
n 163 2e+20
n 164 1e+20
n 165 1e+20
n 166 2e+20
n 167 2e+20
n 168 2e+20
n 169 2e+20
n 170 1e+20
n 171 2e+20
n 172 2e+20
n 173 1e+20
n 174 1e+20
n 175 1e+20
n 176 2e+20
n 177 1e+20
n 178 1e+20
n 179 1e+20
n 180 2e+20
n 181 2e+20
n 182 1e+20
n 183 1e+20
n 184 1e+20
n 185 2e+20
n 186 1e+20
n 187 1e+20
n 188 6e+20
n 189 2e+20
n 190 2e+20
n 191 2e+20
n 192 2e+20
n 193 2e+20
n 194 1e+20
n 195 2e+20
n 196 1e+20
n 197 1e+20
n 198 1e+20
n 199 2e+20
n 200 2e+20
n 201 1e+20
n 202 1e+20
n 203 1e+20
n 204 2e+20
n 205 1e+20
n 206 1e+20
n 207 1e+20
n 208 2e+20
n 209 2e+20
n 210 1e+20
n 211 1e+20
n 212 6e+20
n 213 2e+20
n 214 2e+20
n 215 2e+20
n 216 2e+20
n 217 2e+20
n 218 2e+20
n 219 2e+20
n 220 2e+20
n 221 1e+20
n 222 2e+20
n 223 1e+20
n 224 1e+20
n 225 1e+20
n 226 2e+20
n 227 2e+20
n 228 1e+20
n 229 1e+20
n 230 1e+20
n 231 2e+20
n 232 1e+20
n 233 1e+20
n 234 6e+20
n 235 2e+20
n 236 2e+20
n 237 2e+20
n 238 2e+20
n 239 2e+20
n 240 2e+20
n 241 2e+20
n 242 2e+20
n 243 1e+20
n 244 2e+20
n 245 2e+20
n 246 1e+20
n 247 1e+20
n 248 1e+20
n 249 2e+20
n 250 2e+20
n 251 1e+20
n 252 1e+20
n 253 1e+20
n 254 2e+20
n 255 2e+20
n 256 1e+20
n 257 1e+20
n 258 4e+20
n 259 2e+20
n 260 2e+20
n 261 1e+20
n 262 1e+20
n 263 2e+20
n 264 2e+20
n 265 2e+20
n 266 2e+20
n 267 1e+20
n 268 2e+20
n 269 1e+20
n 270 1e+20
n 271 1e+20
n 272 2e+20
n 273 1e+20
n 274 1e+20
n 275 6e+20
n 276 2e+20
n 277 2e+20
n 278 2e+20
n 279 2e+20
n 280 2e+20
n 281 2e+20
n 282 1e+20
n 283 2e+20
n 284 2e+20
n 285 1e+20
n 286 1e+20
n 287 6e+20
n 288 2e+20
n 289 2e+20
n 290 2e+20
n 291 2e+20
n 292 2e+20
n 293 2e+20
n 294 1e+20
n 295 2e+20
n 296 1e+20
n 297 1e+20
n 298 6e+20
n 299 2e+20
n 300 2e+20
n 301 2e+20
n 302 2e+20
n 303 2e+20
n 304 2e+20
n 305 2e+20
n 306 6e+20
n 307 2e+20
n 308 2e+20
n 309 2e+20
n 310 2e+20
n 311 1e+20
n 312 2e+20
n 313 1e+20
n 314 1e+20
n 315 6e+20
n 316 2e+20
n 317 2e+20
n 318 2e+20
n 319 2e+20
n 320 2e+20
n 321 2e+20
n 322 2e+20
n 323 2e+20
n 324 1e+20
n 325 2e+20
n 326 2e+20
n 327 1e+20
n 328 1e+20
n 329 6e+20
n 330 2e+20
n 331 2e+20
n 332 2e+20
n 333 2e+20
n 334 2e+20
n 335 2e+20
n 336 2e+20
n 337 4e+20
n 338 2e+20
n 339 2e+20
n 340 2e+20
n 341 2e+20
n 342 1e+20
n 343 1e+20
n 344 6e+20
n 345 2e+20
n 346 2e+20
n 347 2e+20
n 348 2e+20
n 349 2e+20
n 350 2e+20
n 351 1e+20
n 352 2e+20
n 353 1e+20
n 354 1e+20
n 355 1e+20
n 356 2e+20
n 357 1e+20
n 358 1e+20
n 359 1e+20
n 360 2e+20
n 361 1e+20
n 362 1e+20
n 363 1e+20
n 364 2e+20
n 365 1e+20
n 366 1e+20
n 367 1e+20
n 368 2e+20
n 369 1e+20
n 370 1e+20
n 371 1e+20
n 372 2e+20
n 373 1e+20
n 374 1e+20
n 375 6e+20
n 376 2e+20
n 377 2e+20
n 378 2e+20
n 379 2e+20
n 380 2e+20
n 381 2e+20
n 382 2e+20
n 383 2e+20
n 384 1e+20
n 385 2e+20
n 386 1e+20
n 387 1e+20
n 388 6e+20
n 389 2e+20
n 390 2e+20
n 391 2e+20
n 392 2e+20
n 393 2e+20
n 394 2e+20
n 395 2e+20
n 396 1e+20
n 397 2e+20
n 398 1e+20
n 399 1e+20
n 400 1e+20
n 401 2e+20
n 402 1e+20
n 403 1e+20
n 404 2e+20
n 405 2e+20
n 406 2e+20
n 407 2e+20
n 408 1e+20
n 409 1e+20
n 410 1e+20
n 411 1e+20
n 412 1e+20
n 413 1e+20
n 414 1e+20
n 415 1e+20
n 416 1e+20
n 417 6e+20
n 418 2e+20
n 419 2e+20
n 420 2e+20
n 421 2e+20
n 422 2e+20
n 423 2e+20
n 424 1e+20
n 425 2e+20
n 426 1e+20
n 427 1e+20
n 428 1e+20
n 429 2e+20
n 430 2e+20
n 431 1e+20
n 432 1e+20
n 433 1e+20
n 434 2e+20
n 435 1e+20
n 436 1e+20
n 437 6e+20
n 438 2e+20
n 439 2e+20
n 440 2e+20
n 441 2e+20
n 442 2e+20
n 443 2e+20
n 444 2e+20
n 445 1e+20
n 446 2e+20
n 447 2e+20
n 448 1e+20
n 449 1e+20
n 450 6e+20
n 451 2e+20
n 452 2e+20
n 453 2e+20
n 454 2e+20
n 455 2e+20
n 456 2e+20
n 457 2e+20
n 458 2e+20
n 459 4e+20
n 460 2e+20
n 461 1e+20
n 462 1e+20
n 463 2e+20
n 464 2e+20
n 465 2e+20
n 466 2e+20
n 467 1e+20
n 468 2e+20
n 469 2e+20
n 470 1e+20
n 471 1e+20
n 472 1e+20
n 473 2e+20
n 474 1e+20
n 475 1e+20
n 476 6e+20
n 477 2e+20
n 478 2e+20
n 479 2e+20
n 480 2e+20
n 481 2e+20
n 482 2e+20
n 483 2e+20
n 484 1e+20
n 485 2e+20
n 486 2e+20
n 487 1e+20
n 488 1e+20
n 489 6e+20
n 490 2e+20
n 491 2e+20
n 492 2e+20
n 493 2e+20
n 494 2e+20
n 495 2e+20
n 496 2e+20
n 497 6e+20
n 498 2e+20
n 499 2e+20
n 500 2e+20
n 501 2e+20
n 502 2e+20
n 503 2e+20
n 504 6e+20
n 505 2e+20
n 506 2e+20
n 507 2e+20
n 508 2e+20
n 509 2e+20
n 510 6e+20
n 511 2e+20
n 512 2e+20
n 513 2e+20
n 514 2e+20
n 515 2e+20
n 516 2e+20
n 517 1e+20
n 518 1e+20
n 519 1e+20
n 520 3e+20
n 521 2e+20
n 522 2e+20
n 523 2e+20
n 524 2e+20
n 525 1e+20
n 526 1e+20
n 527 1e+20
n 528 6e+20
n 529 2e+20
n 530 2e+20
n 531 2e+20
n 532 2e+20
n 533 2e+20
n 534 1e+20
n 535 2e+20
n 536 1e+20
n 537 1e+20
n 538 6e+20
n 539 2e+20
n 540 2e+20
n 541 2e+20
n 542 2e+20
n 543 2e+20
n 544 2e+20
n 545 2e+20
n 546 1e+20
n 547 2e+20
n 548 1e+20
n 549 1e+20
n 550 6e+20
n 551 2e+20
n 552 2e+20
n 553 2e+20
n 554 2e+20
n 555 2e+20
n 556 1e+20
n 557 2e+20
n 558 1e+20
n 559 1e+20
n 560 6e+20
n 561 2e+20
n 562 2e+20
n 563 2e+20
n 564 2e+20
n 565 2e+20
n 566 6e+20
n 567 2e+20
n 568 2e+20
n 569 2e+20
n 570 2e+20
n 571 2e+20
n 572 6e+20
n 573 2e+20
n 574 2e+20
n 575 2e+20
n 576 2e+20
n 577 2e+20
n 578 6e+20
n 579 2e+20
n 580 2e+20
n 581 2e+20
n 582 2e+20
n 583 2e+20
n 584 2e+20
n 585 1e+20
n 586 1e+20
n 587 2e+20
n 588 1e+20
n 589 1e+20
n 590 1e+20
n 591 1e+20
n 592 1e+20
n 593 1e+20
n 594 2e+20
n 595 1e+20
n 596 1e+20
n 597 1e+20
n 598 2e+20
n 599 1e+20
n 600 1e+20
n 601 4e+20
n 602 2e+20
n 603 1e+20
n 604 1e+20
n 605 2e+20
n 606 2e+20
n 607 1e+20
n 608 2e+20
n 609 1e+20
n 610 1e+20
n 611 6e+20
n 612 2e+20
n 613 2e+20
n 614 2e+20
n 615 2e+20
n 616 2e+20
n 617 2e+20
n 618 6e+20
n 619 2e+20
n 620 2e+20
n 621 2e+20
n 622 2e+20
n 623 2e+20
n 624 6e+20
n 625 2e+20
n 626 2e+20
n 627 2e+20
n 628 2e+20
n 629 2e+20
n 630 6e+20
n 631 2e+20
n 632 2e+20
n 633 2e+20
n 634 2e+20
n 635 2e+20
n 636 2e+20
n 637 2e+20
n 638 1e+20
n 639 1e+20
n 640 1e+20
n 641 1e+20
n 642 2e+20
n 643 1e+20
n 644 1e+20
n 645 1e+20
n 646 2e+20
n 647 2e+20
n 648 1e+20
n 649 1e+20
n 650 1e+20
n 651 1e+20
n 652 1e+20
n 653 1e+20
n 654 4e+20
n 655 1e+20
n 656 1e+20
n 657 3e+20
n 658 2e+20
n 659 2e+20
n 660 2e+20
n 661 1e+20
n 662 2e+20
n 663 1e+20
n 664 1e+20
n 665 1e+20
n 666 1e+20
n 667 1e+20
n 668 2e+20
n 669 2e+20
n 670 6e+20
n 671 2e+20
n 672 2e+20
n 673 2e+20
n 674 2e+20
n 675 1e+20
n 676 2e+20
n 677 1e+20
n 678 1e+20
n 679 6e+20
n 680 2e+20
n 681 2e+20
n 682 2e+20
n 683 2e+20
n 684 2e+20
n 685 6e+20
n 686 2e+20
n 687 2e+20
n 688 2e+20
n 689 2e+20
n 690 2e+20
n 691 2e+20
n 692 1e+20
n 693 1e+20
n 694 2e+20
n 695 1e+20
n 696 1e+20
n 697 1e+20
n 698 2e+20
n 699 1e+20
n 700 1e+20
n 701 1e+20
n 702 2e+20
n 703 1e+20
n 704 1e+20
n 705 1e+20
n 706 1e+20
n 707 1e+20
n 708 4e+20
n 709 2e+20
n 710 1e+20
n 711 1e+20
n 712 2e+20
n 713 2e+20
n 714 1e+20
n 715 2e+20
n 716 1e+20
n 717 1e+20
n 718 1e+20
n 719 1e+20
n 720 1e+20
n 721 1e+20
n 722 1e+20
n 723 1e+20
n 724 6e+20
n 725 2e+20
n 726 2e+20
n 727 2e+20
n 728 2e+20
n 729 2e+20
n 730 4e+20
n 731 1e+20
n 732 1e+20
n 733 2e+20
n 734 2e+20
n 735 6e+20
n 736 2e+20
n 737 2e+20
n 738 2e+20
n 739 2e+20
n 740 1e+20
n 741 2e+20
n 742 1e+20
n 743 1e+20
n 744 6e+20
n 745 2e+20
n 746 2e+20
n 747 2e+20
n 748 2e+20
n 749 1e+20
n 750 1e+20
n 751 1e+20
n 752 1e+20
n 753 1e+20
n 754 1e+20
n 755 1e+20
n 756 1e+20
n 757 1e+20
n 758 1e+20
n 759 1e+20
n 760 1e+20
n 761 1e+20
n 762 1e+20
n 763 1e+20
n 764 1e+20
n 765 1e+20
n 766 1e+20
n 767 6e+20
n 768 2e+20
n 769 2e+20
n 770 2e+20
n 771 2e+20
n 772 4e+20
n 773 1e+20
n 774 1e+20
n 775 2e+20
n 776 2e+20
n 777 1e+20
n 778 1e+20
n 779 1e+20
n 780 6e+20
n 781 2e+20
n 782 2e+20
n 783 2e+20
n 784 2e+20
n 785 1e+20
n 786 1e+20
n 787 1e+20
n 788 6e+20
n 789 2e+20
n 790 2e+20
n 791 2e+20
n 792 2e+20
n 793 1e+20
n 794 1e+20
n 795 1e+20
n 796 6e+20
n 797 2e+20
n 798 2e+20
n 799 2e+20
n 800 2e+20
n 801 1e+20
n 802 1e+20
n 803 1e+20
n 804 1e+20
n 805 1e+20
n 806 1e+20
n 807 1e+20
n 808 1e+20
n 809 1e+20
n 810 6e+20
n 811 2e+20
n 812 2e+20
n 813 2e+20
n 814 2e+20
n 815 2e+20
n 816 1e+20
n 817 1e+20
n 818 1e+20
n 819 1e+20
n 820 1e+20
n 821 1e+20
n 822 1e+20
n 823 1e+20
n 824 1e+20
n 825 1e+20
n 826 2e+20
n 827 1e+20
n 828 1e+20
n 829 2e+20
n 830 1e+20
n 831 1e+20
n 832 0.693147
n 833 1e+20
n 834 2.30259
n 835 2e+20
n 836 1e+20
n 837 2e+20
n 838 1e+20
n 839 2e+20
n 840 1e+20
n 841 2e+20
n 842 1e+20
n 843 2e+20
n 844 1e+20
n 845 1e+20
n 846 0.693147
n 847 2e+20
n 848 1e+20
n 849 2e+20
n 850 1e+20
n 851 1e+20
n 852 0.693147
n 853 1e+20
n 854 0.693147
n 855 2e+20
n 856 1e+20
n 857 2e+20
n 858 1e+20
n 859 1e+20
n 860 2.40795
n 861 1e+20
n 862 0.693147
n 863 1e+20
n 864 0.105361
n 865 1e+20
n 866 0.693147
n 867 1e+20
n 868 0.693147
n 869 1e+20
n 870 0.105361
n 871 1e+20
n 872 0.916291
n 873 2e+20
n 874 1e+20
n 875 2e+20
n 876 1e+20
n 877 1e+20
n 878 0.116534
n 879 2e+20
n 880 1e+20
n 881 2e+20
n 882 1e+20
n 883 1e+20
n 884 0.916291
n 885 1e+20
n 886 0.693147
n 887 1e+20
n 888 0.693147
n 889 1e+20
n 890 2.30259
n 891 1e+20
n 892 0.105361
n 893 1e+20
n 894 0.916291
n 895 1e+20
n 896 0.510826
n 897 2e+20
n 898 1e+20
n 899 1e+20
n 900 0.693147
n 901 3.4761
n 902 1e+20
n 903 1e+20
n 904 0.693147
n 905 1e+20
n 906 0.693147
n 907 1e+20
n 908 0.693147
n 909 2e+20
n 910 1e+20
n 911 2e+20
n 912 1e+20
n 913 1e+20
n 914 2.30259
n 915 1e+20
n 916 0.916291
n 917 1e+20
n 918 0.916291
n 919 1e+20
n 920 0.105361
n 921 2e+20
n 922 1e+20
n 923 2e+20
n 924 1e+20
n 925 1e+20
n 926 0.693147
n 927 1e+20
n 928 0.693147
n 929 1e+20
n 930 0.693147
n 931 2e+20
n 932 1e+20
n 933 2e+20
n 934 1e+20
n 935 1e+20
n 936 0.693147
n 937 1e+20
n 938 0.105361
n 939 1e+20
n 940 0.693147
n 941 3.4761
n 942 1e+20
n 943 1e+20
n 944 0.693147
n 945 2e+20
n 946 1e+20
n 947 1e+20
n 948 0.562119
n 949 1e+20
n 950 0.693147
n 951 2e+20
n 952 1e+20
n 953 2e+20
n 954 1e+20
n 955 1e+20
n 956 0.916291
n 957 2e+20
n 958 1e+20
n 959 2e+20
n 960 1e+20
n 961 1e+20
n 962 0.693147
n 963 2e+20
n 964 1e+20
n 965 2e+20
n 966 1e+20
n 967 2e+20
n 968 1e+20
n 969 2e+20
n 970 1e+20
n 971 1e+20
n 972 0.693147
n 973 2e+20
n 974 1e+20
n 975 2e+20
n 976 1e+20
n 977 1e+20
n 978 0.693147
n 979 2e+20
n 980 1e+20
n 981 2e+20
n 982 1e+20
n 983 1e+20
n 984 1e+20
n 985 0.105361
n 986 2e+20
n 987 2e+20
n 988 1e+20
n 989 2e+20
n 990 1e+20
n 991 1e+20
n 992 1.60944
n 993 1e+20
n 994 0.916291
n 995 1e+20
n 996 0.105361
n 997 1e+20
n 998 0.693147
n 999 1e+20
n 1000 0.356675
n 1001 1e+20
n 1002 0.356675
n 1003 2e+20
n 1004 1e+20
n 1005 2e+20
n 1006 1e+20
n 1007 1e+20
n 1008 0.916291
n 1009 2e+20
n 1010 1e+20
n 1011 2e+20
n 1012 1e+20
n 1013 1e+20
n 1014 0.693147
n 1015 1e+20
n 1016 0.693147
n 1017 2e+20
n 1018 1e+20
n 1019 1e+20
n 1020 0.693147
n 1021 1e+20
n 1022 2.30259
n 1023 1e+20
n 1024 0.693147
n 1025 2e+20
n 1026 1e+20
n 1027 2e+20
n 1028 1e+20
n 1029 1e+20
n 1030 0.105361
n 1031 1e+20
n 1032 2.30259
n 1033 1e+20
n 1034 0.693147
n 1035 2e+20
n 1036 1e+20
n 1037 2e+20
n 1038 1e+20
n 1039 1e+20
n 1040 0.105361
n 1041 2e+20
n 1042 1e+20
n 1043 2e+20
n 1044 1e+20
n 1045 1e+20
n 1046 4.60517
n 1047 2e+20
n 1048 1e+20
n 1049 1e+20
n 1050 0.693147
n 1051 1e+20
n 1052 0.105361
n 1053 2e+20
n 1054 1e+20
n 1055 2e+20
n 1056 1e+20
n 1057 1e+20
n 1058 3.91202
n 1059 2e+20
n 1060 1e+20
n 1061 2e+20
n 1062 1e+20
n 1063 2e+20
n 1064 1e+20
n 1065 2e+20
n 1066 1e+20
n 1067 2e+20
n 1068 1e+20
n 1069 2e+20
n 1070 1e+20
n 1071 2e+20
n 1072 1e+20
n 1073 2e+20
n 1074 1e+20
n 1075 1e+20
n 1076 0.116534
n 1077 2e+20
n 1078 1e+20
n 1079 1e+20
n 1080 0.693147
n 1081 2e+20
n 1082 1e+20
n 1083 2e+20
n 1084 1e+20
n 1085 1e+20
n 1086 0.693147
n 1087 2e+20
n 1088 1e+20
n 1089 2e+20
n 1090 1e+20
n 1091 1e+20
n 1092 4.60517
n 1093 2e+20
n 1094 1e+20
n 1095 2e+20
n 1096 1e+20
n 1097 1e+20
n 1098 0.693147
n 1099 2e+20
n 1100 1e+20
n 1101 2e+20
n 1102 1e+20
n 1103 2e+20
n 1104 1e+20
n 1105 2e+20
n 1106 1e+20
n 1107 2e+20
n 1108 1e+20
n 1109 2e+20
n 1110 1e+20
n 1111 2e+20
n 1112 1e+20
n 1113 2e+20
n 1114 1e+20
n 1115 1e+20
n 1116 0.116534
n 1117 1e+20
n 1118 0.116534
n 1119 1e+20
n 1120 0.693147
n 1121 1e+20
n 1122 0.916291
n 1123 1e+20
n 1124 0.916291
n 1125 1e+20
n 1126 2.30259
n 1127 2e+20
n 1128 1e+20
n 1129 1e+20
n 1130 2.30259
n 1131 2e+20
n 1132 1e+20
n 1133 2e+20
n 1134 1e+20
n 1135 2e+20
n 1136 1e+20
n 1137 2e+20
n 1138 1e+20
n 1139 2e+20
n 1140 1e+20
n 1141 2e+20
n 1142 1e+20
n 1143 2e+20
n 1144 1e+20
n 1145 2e+20
n 1146 1e+20
n 1147 1e+20
n 1148 0.116534
n 1149 1e+20
n 1150 0.693147
n 1151 1e+20
n 1152 0.693147
n 1153 1e+20
n 1154 0.693147
n 1155 1e+20
n 1156 2e+20
n 1157 1e+20
n 1158 1e+20
n 1159 2.30259
n 1160 1e+20
n 1161 0.693147
n 1162 1e+20
n 1163 2e+20
n 1164 1e+20
n 1165 2e+20
n 1166 1e+20
n 1167 2e+20
n 1168 1e+20
n 1169 1e+20
n 1170 0.693147
n 1171 2e+20
n 1172 1e+20
n 1173 2e+20
n 1174 1e+20
n 1175 2e+20
n 1176 1e+20
n 1177 2e+20
n 1178 1e+20
n 1179 1e+20
n 1180 0.693147
n 1181 1e+20
n 1182 0.916291
n 1183 1e+20
n 1184 0.693147
n 1185 1e+20
n 1186 2.99573
n 1187 1e+20
n 1188 0.105361
n 1189 1e+20
n 1190 4.60517
n 1191 2e+20
n 1192 1e+20
n 1193 1e+20
n 1194 0.693147
n 1195 1e+20
n 1196 2.30259
n 1197 1e+20
n 1198 3.91202
n 1199 2e+20
n 1200 1e+20
n 1201 2e+20
n 1202 1e+20
n 1203 1e+20
n 1204 2.30259
n 1205 2e+20
n 1206 1e+20
n 1207 2e+20
n 1208 1e+20
n 1209 2e+20
n 1210 1e+20
n 1211 1e+20
n 1212 0.693147
n 1213 2e+20
n 1214 1e+20
n 1215 2e+20
n 1216 1e+20
n 1217 1e+20
n 1218 2.40795
n 1219 1e+20
n 1220 0.693147
n 1221 1e+20
n 1222 3.91202
n 1223 1e+20
n 1224 0.693147
n 1225 1e+20
n 1226 2.30259
n 1227 1e+20
n 1228 0.693147
n 1229 2e+20
n 1230 1e+20
n 1231 2e+20
n 1232 1e+20
n 1233 1e+20
n 1234 0.693147
n 1235 2e+20
n 1236 1e+20
n 1237 1e+20
n 1238 0.916291
n 1239 2e+20
n 1240 1e+20
n 1241 2e+20
n 1242 1e+20
n 1243 1e+20
n 1244 2.30259
n 1245 2e+20
n 1246 1e+20
n 1247 2e+20
n 1248 1e+20
n 1249 1e+20
n 1250 0.693147
n 1251 2e+20
n 1252 1e+20
n 1253 2e+20
n 1254 1e+20
n 1255 1e+20
n 1256 2.40795
n 1257 1e+20
n 1258 2.99573
n 1259 1e+20
n 1260 0.356675
n 1261 2e+20
n 1262 1e+20
n 1263 2e+20
n 1264 1e+20
n 1265 1e+20
n 1266 0.105361
n 1267 1e+20
n 1268 0.916291
n 1269 1e+20
n 1270 2.40795
n 1271 1e+20
n 1272 0.105361
n 1273 3.4761
n 1274 1e+20
n 1275 1e+20
n 1276 1e+20
n 1277 1e+20
n 1278 1e+20
n 1279 1e+20
n 1280 1e+20
n 1281 1e+20
n 1282 1e+20
n 1283 1e+20
n 1284 1e+20
n 1285 1e+20
n 1286 1e+20
n 1287 1e+20
n 1288 1e+20
n 1289 1e+20
n 1290 1e+20
n 1291 1e+20
n 1292 1e+20
n 1293 1e+20
n 1294 1e+20
n 1295 1e+20
n 1296 1e+20
n 1297 1e+20
n 1298 1e+20
n 1299 1e+20
n 1300 1e+20
n 1301 1e+20
n 1302 1e+20
n 1303 1e+20
n 1304 1e+20
n 1305 1e+20
n 1306 1e+20
n 1307 1e+20
n 1308 1e+20
n 1309 1e+20
n 1310 1e+20
n 1311 1e+20
n 1312 1e+20
n 1313 1e+20
n 1314 1e+20
n 1315 1e+20
n 1316 1e+20
n 1317 1e+20
n 1318 1e+20
n 1319 1e+20
n 1320 1e+20
n 1321 1e+20
n 1322 1e+20
n 1323 1e+20
n 1324 1e+20
n 1325 1e+20
n 1326 1e+20
n 1327 1e+20
n 1328 1e+20
n 1329 1e+20
n 1330 1e+20
n 1331 1e+20
n 1332 1e+20
n 1333 1e+20
n 1334 1e+20
n 1335 1e+20
n 1336 1e+20
n 1337 1e+20
n 1338 1e+20
n 1339 1e+20
n 1340 1e+20
n 1341 1e+20
n 1342 1e+20
n 1343 1e+20
n 1344 1e+20
n 1345 1e+20
n 1346 1e+20
n 1347 1e+20
n 1348 1e+20
n 1349 1e+20
n 1350 1e+20
n 1351 1e+20
n 1352 1e+20
n 1353 1e+20
n 1354 1e+20
n 1355 1e+20
n 1356 1e+20
n 1357 1e+20
n 1358 1e+20
n 1359 1e+20
n 1360 1e+20
n 1361 1e+20
n 1362 1e+20
n 1363 1e+20
n 1364 1e+20
n 1365 1e+20
n 1366 1e+20
n 1367 1e+20
n 1368 1e+20
n 1369 1e+20
n 1370 1e+20
n 1371 1e+20
n 1372 1e+20
n 1373 1e+20
n 1374 1e+20
n 1375 1e+20
n 1376 1e+20
n 1377 1e+20
n 1378 1e+20
n 1379 1e+20
n 1380 1e+20
n 1381 1e+20
n 1382 1e+20
n 1383 1e+20
e 4 5
e 5 1
e 4 2
e 4 3
e 8 9
e 9 1
e 8 6
e 8 7
e 12 13
e 13 1
e 12 10
e 12 11
e 17 18
e 18 14
e 17 15
e 17 16
e 22 23
e 23 19
e 22 20
e 22 21
e 26 27
e 27 19
e 26 24
e 26 25
e 31 32
e 32 28
e 31 29
e 31 30
e 35 36
e 36 28
e 35 33
e 35 34
e 40 41
e 41 37
e 40 38
e 40 39
e 44 45
e 45 37
e 44 42
e 44 43
e 49 50
e 50 46
e 49 47
e 49 48
e 53 54
e 54 51
e 53 21
e 53 52
e 56 57
e 57 51
e 56 25
e 56 55
e 60 61
e 61 58
e 60 52
e 60 59
e 65 66
e 66 62
e 65 63
e 65 64
e 70 71
e 71 67
e 70 68
e 70 69
e 74 75
e 75 67
e 74 72
e 74 73
e 79 80
e 80 76
e 79 77
e 79 78
e 84 85
e 85 81
e 84 82
e 84 83
e 89 90
e 90 86
e 89 87
e 89 88
e 94 95
e 95 91
e 94 92
e 94 93
e 99 100
e 100 96
e 99 97
e 99 98
e 103 104
e 104 101
e 103 102
e 103 87
e 108 109
e 109 105
e 108 106
e 108 107
e 113 114
e 114 110
e 113 111
e 113 112
e 117 118
e 118 110
e 117 115
e 117 116
e 122 123
e 123 119
e 122 120
e 122 121
e 127 128
e 128 124
e 127 125
e 127 126
e 131 132
e 132 124
e 131 129
e 131 130
e 136 137
e 137 133
e 136 134
e 136 135
e 141 142
e 142 138
e 141 139
e 141 140
e 145 146
e 146 138
e 145 143
e 145 144
e 150 151
e 151 147
e 150 148
e 150 149
e 155 156
e 156 152
e 155 153
e 155 154
e 160 161
e 161 157
e 160 158
e 160 159
e 164 165
e 165 162
e 164 140
e 164 163
e 168 169
e 169 162
e 168 166
e 168 167
e 173 174
e 174 170
e 173 171
e 173 172
e 177 178
e 178 175
e 177 176
e 177 153
e 182 183
e 183 179
e 182 180
e 182 181
e 186 187
e 187 184
e 186 172
e 186 185
e 189 190
e 190 188
e 189 93
e 189 20
e 192 193
e 193 188
e 192 191
e 192 24
e 196 197
e 197 194
e 196 64
e 196 195
e 201 202
e 202 198
e 201 199
e 201 200
e 205 206
e 206 203
e 205 16
e 205 204
e 210 211
e 211 207
e 210 208
e 210 209
e 215 216
e 216 212
e 215 213
e 215 214
e 219 220
e 220 212
e 219 217
e 219 218
e 223 224
e 224 221
e 223 222
e 223 68
e 228 229
e 229 225
e 228 226
e 228 227
e 232 233
e 233 230
e 232 231
e 232 148
e 237 238
e 238 234
e 237 235
e 237 236
e 241 242
e 242 234
e 241 239
e 241 240
e 246 247
e 247 243
e 246 244
e 246 245
e 251 252
e 252 248
e 251 249
e 251 250
e 256 257
e 257 253
e 256 254
e 256 255
e 261 262
e 262 258
e 261 259
e 261 260
e 265 266
e 266 258
e 265 263
e 265 264
e 269 270
e 270 267
e 269 268
e 269 259
e 273 274
e 274 271
e 273 245
e 273 272
e 277 278
e 278 275
e 277 195
e 277 276
e 280 281
e 281 275
e 280 279
e 280 191
e 285 286
e 286 282
e 285 283
e 285 284
e 289 290
e 290 287
e 289 288
e 289 226
e 292 293
e 293 287
e 292 73
e 292 291
e 296 297
e 297 294
e 296 295
e 296 176
e 301 302
e 302 298
e 301 299
e 301 300
e 304 305
e 305 298
e 304 303
e 304 239
e 307 308
e 308 306
e 307 48
e 307 235
e 309 310
e 310 306
e 309 240
e 309 33
e 313 314
e 314 311
e 313 312
e 313 82
e 318 319
e 319 315
e 318 316
e 318 317
e 322 323
e 323 315
e 322 320
e 322 321
e 327 328
e 328 324
e 327 325
e 327 326
e 331 332
e 332 329
e 331 330
e 331 102
e 335 336
e 336 329
e 335 333
e 335 334
e 339 340
e 340 2
e 339 337
e 339 338
e 342 343
e 343 2
e 342 7
e 342 341
e 346 347
e 347 344
e 346 181
e 346 345
e 349 350
e 350 344
e 349 334
e 349 348
e 353 354
e 354 351
e 353 135
e 353 352
e 357 358
e 358 355
e 357 356
e 357 158
e 361 362
e 362 359
e 361 326
e 361 360
e 365 366
e 366 363
e 365 144
e 365 364
e 369 370
e 370 367
e 369 368
e 369 213
e 373 374
e 374 371
e 373 372
e 373 125
e 378 379
e 379 375
e 378 376
e 378 377
e 382 383
e 383 375
e 382 380
e 382 381
e 386 387
e 387 384
e 386 385
e 386 222
e 390 391
e 391 388
e 390 377
e 390 389
e 394 395
e 395 388
e 394 392
e 394 393
e 398 399
e 399 396
e 398 98
e 398 397
e 402 403
e 403 400
e 402 69
e 402 401
e 406 407
e 407 337
e 406 404
e 406 405
e 409 410
e 410 408
e 409 341
e 409 404
e 412 413
e 413 411
e 412 397
e 412 134
e 415 416
e 416 414
e 415 214
e 415 47
e 419 420
e 420 417
e 419 185
e 419 418
e 422 423
e 423 417
e 422 321
e 422 421
e 426 427
e 427 424
e 426 227
e 426 425
e 431 432
e 432 428
e 431 429
e 431 430
e 435 436
e 436 433
e 435 434
e 435 63
e 440 441
e 441 437
e 440 438
e 440 439
e 443 444
e 444 437
e 443 421
e 443 442
e 448 449
e 449 445
e 448 446
e 448 447
e 453 454
e 454 450
e 453 451
e 453 452
e 457 458
e 458 450
e 457 455
e 457 456
e 461 462
e 462 459
e 461 460
e 461 208
e 465 466
e 466 459
e 465 463
e 465 464
e 470 471
e 471 467
e 470 468
e 470 469
e 474 475
e 475 472
e 474 473
e 474 316
e 479 480
e 480 476
e 479 477
e 479 478
e 482 483
e 483 476
e 482 481
e 482 115
e 487 488
e 488 484
e 487 485
e 487 486
e 491 492
e 492 489
e 491 490
e 491 299
e 495 496
e 496 489
e 495 493
e 495 494
e 499 500
e 500 497
e 499 498
e 499 372
e 502 503
e 503 497
e 502 167
e 502 501
e 505 506
e 506 504
e 505 255
e 505 451
e 508 509
e 509 504
e 508 507
e 508 455
e 511 512
e 512 510
e 511 236
e 511 268
e 515 516
e 516 510
e 515 513
e 515 514
e 518 519
e 519 517
e 518 107
e 518 143
e 523 524
e 524 520
e 523 521
e 523 522
e 526 527
e 527 525
e 526 389
e 526 199
e 530 531
e 531 528
e 530 529
e 530 92
e 532 533
e 533 528
e 532 130
e 532 380
e 536 537
e 537 534
e 536 200
e 536 535
e 540 541
e 541 538
e 540 447
e 540 539
e 544 545
e 545 538
e 544 542
e 544 543
e 548 549
e 549 546
e 548 547
e 548 485
e 552 553
e 553 550
e 552 300
e 552 551
e 554 555
e 555 550
e 554 494
e 554 303
e 558 559
e 559 556
e 558 121
e 558 557
e 562 563
e 563 560
e 562 539
e 562 561
e 564 565
e 565 560
e 564 543
e 564 217
e 567 568
e 568 566
e 567 209
e 567 529
e 570 571
e 571 566
e 570 569
e 570 129
e 574 575
e 575 572
e 574 573
e 574 77
e 576 577
e 577 572
e 576 218
e 576 493
e 579 580
e 580 578
e 579 163
e 579 6
e 581 582
e 582 578
e 581 501
e 581 10
e 585 586
e 586 583
e 585 352
e 585 584
e 588 589
e 589 583
e 588 587
e 588 356
e 591 592
e 592 590
e 591 452
e 591 473
e 595 596
e 596 593
e 595 159
e 595 594
e 599 600
e 600 597
e 599 405
e 599 598
e 603 604
e 604 601
e 603 602
e 603 139
e 605 606
e 606 601
e 605 348
e 605 166
e 609 610
e 610 607
e 609 204
e 609 608
e 612 613
e 613 611
e 612 425
e 612 15
e 616 617
e 617 611
e 616 614
e 616 615
e 619 620
e 620 618
e 619 78
e 619 477
e 622 623
e 623 618
e 622 514
e 622 621
e 625 626
e 626 624
e 625 478
e 625 330
e 628 629
e 629 624
e 628 116
e 628 627
e 632 633
e 633 630
e 632 439
e 632 631
e 636 637
e 637 630
e 636 634
e 636 635
e 639 640
e 640 638
e 639 83
e 639 288
e 643 644
e 644 641
e 643 149
e 643 642
e 648 649
e 649 645
e 648 646
e 648 647
e 651 652
e 652 650
e 651 401
e 651 490
e 655 656
e 656 653
e 655 654
e 655 284
e 659 660
e 660 657
e 659 364
e 659 658
e 663 664
e 664 661
e 663 662
e 663 97
e 666 667
e 667 665
e 666 88
e 666 498
e 668 669
e 669 654
e 668 11
e 668 338
e 671 672
e 672 670
e 671 59
e 671 171
e 673 674
e 674 670
e 673 55
e 673 320
e 677 678
e 678 675
e 677 676
e 677 38
e 681 682
e 682 679
e 681 598
e 681 680
e 683 684
e 684 679
e 683 464
e 683 569
e 686 687
e 687 685
e 686 345
e 686 244
e 688 689
e 689 685
e 688 43
e 688 333
e 692 693
e 693 690
e 692 608
e 692 691
e 695 696
e 696 690
e 695 694
e 695 521
e 699 700
e 700 697
e 699 561
e 699 698
e 703 704
e 704 701
e 703 486
e 703 702
e 706 707
e 707 705
e 706 317
e 706 120
e 710 711
e 711 708
e 710 631
e 710 709
e 712 713
e 713 708
e 712 635
e 712 72
e 716 717
e 717 714
e 716 715
e 716 434
e 719 720
e 720 718
e 719 702
e 719 587
e 722 723
e 723 721
e 722 658
e 722 3
e 726 727
e 727 724
e 726 725
e 726 662
e 728 729
e 729 724
e 728 615
e 728 542
e 731 732
e 732 730
e 731 276
e 731 325
e 733 734
e 734 730
e 733 456
e 733 279
e 736 737
e 737 735
e 736 30
e 736 111
e 738 739
e 739 735
e 738 264
e 738 481
e 742 743
e 743 740
e 742 250
e 742 741
e 745 746
e 746 744
e 745 126
e 745 646
e 747 748
e 748 744
e 747 381
e 747 392
e 750 751
e 751 749
e 750 642
e 750 715
e 753 754
e 754 752
e 753 154
e 753 283
e 756 757
e 757 755
e 756 594
e 756 106
e 759 760
e 760 758
e 759 360
e 759 249
e 762 763
e 763 761
e 762 260
e 762 468
e 765 766
e 766 764
e 765 535
e 765 312
e 768 769
e 769 767
e 768 741
e 768 438
e 770 771
e 771 767
e 770 442
e 770 634
e 773 774
e 774 772
e 773 709
e 773 725
e 775 776
e 776 772
e 775 291
e 775 614
e 778 779
e 779 777
e 778 39
e 778 602
e 781 782
e 782 780
e 781 469
e 781 180
e 783 784
e 784 780
e 783 627
e 783 42
e 786 787
e 787 785
e 786 680
e 786 376
e 789 790
e 790 788
e 789 584
e 789 295
e 791 792
e 792 788
e 791 621
e 791 263
e 794 795
e 795 793
e 794 691
e 794 368
e 797 798
e 798 796
e 797 551
e 797 29
e 799 800
e 800 796
e 799 34
e 799 513
e 802 803
e 803 801
e 802 112
e 802 676
e 805 806
e 806 804
e 805 430
e 805 694
e 808 809
e 809 807
e 808 557
e 808 385
e 811 812
e 812 810
e 811 647
e 811 254
e 813 814
e 814 810
e 813 393
e 813 507
e 816 817
e 817 815
e 816 698
e 816 573
e 818 819
e 819 815
e 818 522
e 818 547
e 821 822
e 822 820
e 821 272
e 821 231
e 824 825
e 825 823
e 824 418
e 824 446
e 1 826
e 6 826
e 1 827
e 7 827
e 1 828
e 3 828
e 1 829
e 10 829
e 1 830
e 11 830
e 14 831
e 15 831
e 14 832
e 16 832
e 19 833
e 20 833
e 19 834
e 21 834
e 19 835
e 24 835
e 19 836
e 25 836
e 28 837
e 29 837
e 28 838
e 30 838
e 28 839
e 33 839
e 28 840
e 34 840
e 37 841
e 38 841
e 37 842
e 39 842
e 37 843
e 42 843
e 37 844
e 43 844
e 46 845
e 47 845
e 46 846
e 48 846
e 51 847
e 21 847
e 51 848
e 52 848
e 51 849
e 25 849
e 51 850
e 55 850
e 58 851
e 52 851
e 58 852
e 59 852
e 62 853
e 63 853
e 62 854
e 64 854
e 67 855
e 68 855
e 67 856
e 69 856
e 67 857
e 72 857
e 67 858
e 73 858
e 76 859
e 77 859
e 76 860
e 78 860
e 81 861
e 82 861
e 81 862
e 83 862
e 86 863
e 87 863
e 86 864
e 88 864
e 91 865
e 92 865
e 91 866
e 93 866
e 96 867
e 97 867
e 96 868
e 98 868
e 101 869
e 102 869
e 101 870
e 87 870
e 105 871
e 106 871
e 105 872
e 107 872
e 110 873
e 111 873
e 110 874
e 112 874
e 110 875
e 115 875
e 110 876
e 116 876
e 119 877
e 120 877
e 119 878
e 121 878
e 124 879
e 125 879
e 124 880
e 126 880
e 124 881
e 129 881
e 124 882
e 130 882
e 133 883
e 134 883
e 133 884
e 135 884
e 138 885
e 139 885
e 138 886
e 140 886
e 138 887
e 143 887
e 138 888
e 144 888
e 147 889
e 148 889
e 147 890
e 149 890
e 152 891
e 153 891
e 152 892
e 154 892
e 157 893
e 158 893
e 157 894
e 159 894
e 162 895
e 140 895
e 162 896
e 163 896
e 162 897
e 166 897
e 162 898
e 167 898
e 170 899
e 171 899
e 170 900
e 172 900
e 901 902
e 463 902
e 175 903
e 176 903
e 175 904
e 153 904
e 179 905
e 180 905
e 179 906
e 181 906
e 184 907
e 172 907
e 184 908
e 185 908
e 188 909
e 93 909
e 188 910
e 20 910
e 188 911
e 191 911
e 188 912
e 24 912
e 194 913
e 64 913
e 194 914
e 195 914
e 198 915
e 199 915
e 198 916
e 200 916
e 203 917
e 16 917
e 203 918
e 204 918
e 207 919
e 208 919
e 207 920
e 209 920
e 212 921
e 213 921
e 212 922
e 214 922
e 212 923
e 217 923
e 212 924
e 218 924
e 221 925
e 222 925
e 221 926
e 68 926
e 225 927
e 226 927
e 225 928
e 227 928
e 230 929
e 231 929
e 230 930
e 148 930
e 234 931
e 235 931
e 234 932
e 236 932
e 234 933
e 239 933
e 234 934
e 240 934
e 243 935
e 244 935
e 243 936
e 245 936
e 248 937
e 249 937
e 248 938
e 250 938
e 253 939
e 254 939
e 253 940
e 255 940
e 941 942
e 429 942
e 258 943
e 259 943
e 258 944
e 260 944
e 258 945
e 263 945
e 258 946
e 264 946
e 267 947
e 268 947
e 267 948
e 259 948
e 271 949
e 245 949
e 271 950
e 272 950
e 275 951
e 195 951
e 275 952
e 276 952
e 275 953
e 279 953
e 275 954
e 191 954
e 282 955
e 283 955
e 282 956
e 284 956
e 287 957
e 288 957
e 287 958
e 226 958
e 287 959
e 73 959
e 287 960
e 291 960
e 294 961
e 295 961
e 294 962
e 176 962
e 298 963
e 299 963
e 298 964
e 300 964
e 298 965
e 303 965
e 298 966
e 239 966
e 306 967
e 48 967
e 306 968
e 235 968
e 306 969
e 240 969
e 306 970
e 33 970
e 311 971
e 312 971
e 311 972
e 82 972
e 315 973
e 316 973
e 315 974
e 317 974
e 315 975
e 320 975
e 315 976
e 321 976
e 324 977
e 325 977
e 324 978
e 326 978
e 329 979
e 330 979
e 329 980
e 102 980
e 329 981
e 333 981
e 329 982
e 334 982
e 2 983
e 337 983
e 2 984
e 7 984
e 2 985
e 341 985
e 2 986
e 338 986
e 344 987
e 181 987
e 344 988
e 345 988
e 344 989
e 334 989
e 344 990
e 348 990
e 351 991
e 135 991
e 351 992
e 352 992
e 355 993
e 356 993
e 355 994
e 158 994
e 359 995
e 326 995
e 359 996
e 360 996
e 363 997
e 144 997
e 363 998
e 364 998
e 367 999
e 368 999
e 367 1000
e 213 1000
e 371 1001
e 372 1001
e 371 1002
e 125 1002
e 375 1003
e 376 1003
e 375 1004
e 377 1004
e 375 1005
e 380 1005
e 375 1006
e 381 1006
e 384 1007
e 385 1007
e 384 1008
e 222 1008
e 388 1009
e 377 1009
e 388 1010
e 389 1010
e 388 1011
e 392 1011
e 388 1012
e 393 1012
e 396 1013
e 98 1013
e 396 1014
e 397 1014
e 400 1015
e 69 1015
e 400 1016
e 401 1016
e 337 1017
e 404 1017
e 337 1018
e 405 1018
e 408 1019
e 341 1019
e 408 1020
e 404 1020
e 411 1021
e 397 1021
e 411 1022
e 134 1022
e 414 1023
e 214 1023
e 414 1024
e 47 1024
e 417 1025
e 185 1025
e 417 1026
e 418 1026
e 417 1027
e 321 1027
e 417 1028
e 421 1028
e 424 1029
e 227 1029
e 424 1030
e 425 1030
e 428 1031
e 429 1031
e 428 1032
e 430 1032
e 433 1033
e 434 1033
e 433 1034
e 63 1034
e 437 1035
e 438 1035
e 437 1036
e 439 1036
e 437 1037
e 421 1037
e 437 1038
e 442 1038
e 445 1039
e 446 1039
e 445 1040
e 447 1040
e 450 1041
e 451 1041
e 450 1042
e 452 1042
e 450 1043
e 455 1043
e 450 1044
e 456 1044
e 459 1045
e 460 1045
e 459 1046
e 208 1046
e 459 1047
e 463 1047
e 459 1048
e 464 1048
e 467 1049
e 468 1049
e 467 1050
e 469 1050
e 472 1051
e 473 1051
e 472 1052
e 316 1052
e 476 1053
e 477 1053
e 476 1054
e 478 1054
e 476 1055
e 481 1055
e 476 1056
e 115 1056
e 484 1057
e 485 1057
e 484 1058
e 486 1058
e 489 1059
e 490 1059
e 489 1060
e 299 1060
e 489 1061
e 493 1061
e 489 1062
e 494 1062
e 497 1063
e 498 1063
e 497 1064
e 372 1064
e 497 1065
e 167 1065
e 497 1066
e 501 1066
e 504 1067
e 255 1067
e 504 1068
e 451 1068
e 504 1069
e 507 1069
e 504 1070
e 455 1070
e 510 1071
e 236 1071
e 510 1072
e 268 1072
e 510 1073
e 513 1073
e 510 1074
e 514 1074
e 517 1075
e 107 1075
e 517 1076
e 143 1076
e 520 1077
e 521 1077
e 520 1078
e 522 1078
e 525 1079
e 389 1079
e 525 1080
e 199 1080
e 528 1081
e 529 1081
e 528 1082
e 92 1082
e 528 1083
e 130 1083
e 528 1084
e 380 1084
e 534 1085
e 200 1085
e 534 1086
e 535 1086
e 538 1087
e 447 1087
e 538 1088
e 539 1088
e 538 1089
e 542 1089
e 538 1090
e 543 1090
e 546 1091
e 547 1091
e 546 1092
e 485 1092
e 550 1093
e 300 1093
e 550 1094
e 551 1094
e 550 1095
e 494 1095
e 550 1096
e 303 1096
e 556 1097
e 121 1097
e 556 1098
e 557 1098
e 560 1099
e 539 1099
e 560 1100
e 561 1100
e 560 1101
e 543 1101
e 560 1102
e 217 1102
e 566 1103
e 209 1103
e 566 1104
e 529 1104
e 566 1105
e 569 1105
e 566 1106
e 129 1106
e 572 1107
e 573 1107
e 572 1108
e 77 1108
e 572 1109
e 218 1109
e 572 1110
e 493 1110
e 578 1111
e 163 1111
e 578 1112
e 6 1112
e 578 1113
e 501 1113
e 578 1114
e 10 1114
e 583 1115
e 352 1115
e 583 1116
e 584 1116
e 583 1117
e 587 1117
e 583 1118
e 356 1118
e 590 1119
e 452 1119
e 590 1120
e 473 1120
e 593 1121
e 159 1121
e 593 1122
e 594 1122
e 597 1123
e 405 1123
e 597 1124
e 598 1124
e 601 1125
e 602 1125
e 601 1126
e 139 1126
e 601 1127
e 348 1127
e 601 1128
e 166 1128
e 607 1129
e 204 1129
e 607 1130
e 608 1130
e 611 1131
e 425 1131
e 611 1132
e 15 1132
e 611 1133
e 614 1133
e 611 1134
e 615 1134
e 618 1135
e 78 1135
e 618 1136
e 477 1136
e 618 1137
e 514 1137
e 618 1138
e 621 1138
e 624 1139
e 478 1139
e 624 1140
e 330 1140
e 624 1141
e 116 1141
e 624 1142
e 627 1142
e 630 1143
e 439 1143
e 630 1144
e 631 1144
e 630 1145
e 634 1145
e 630 1146
e 635 1146
e 638 1147
e 83 1147
e 638 1148
e 288 1148
e 641 1149
e 149 1149
e 641 1150
e 642 1150
e 645 1151
e 646 1151
e 645 1152
e 647 1152
e 650 1153
e 401 1153
e 650 1154
e 490 1154
e 653 1155
e 284 1155
e 657 1156
e 364 1156
e 657 1157
e 658 1157
e 661 1158
e 662 1158
e 661 1159
e 97 1159
e 665 1160
e 88 1160
e 665 1161
e 498 1161
e 654 1162
e 284 1162
e 654 1163
e 11 1163
e 654 1164
e 338 1164
e 670 1165
e 59 1165
e 670 1166
e 171 1166
e 670 1167
e 55 1167
e 670 1168
e 320 1168
e 675 1169
e 676 1169
e 675 1170
e 38 1170
e 679 1171
e 598 1171
e 679 1172
e 680 1172
e 679 1173
e 464 1173
e 679 1174
e 569 1174
e 685 1175
e 345 1175
e 685 1176
e 244 1176
e 685 1177
e 43 1177
e 685 1178
e 333 1178
e 690 1179
e 608 1179
e 690 1180
e 691 1180
e 690 1181
e 694 1181
e 690 1182
e 521 1182
e 697 1183
e 561 1183
e 697 1184
e 698 1184
e 701 1185
e 486 1185
e 701 1186
e 702 1186
e 705 1187
e 317 1187
e 705 1188
e 120 1188
e 708 1189
e 631 1189
e 708 1190
e 709 1190
e 708 1191
e 635 1191
e 708 1192
e 72 1192
e 714 1193
e 715 1193
e 714 1194
e 434 1194
e 718 1195
e 702 1195
e 718 1196
e 587 1196
e 721 1197
e 658 1197
e 721 1198
e 3 1198
e 724 1199
e 725 1199
e 724 1200
e 662 1200
e 724 1201
e 615 1201
e 724 1202
e 542 1202
e 730 1203
e 276 1203
e 730 1204
e 325 1204
e 730 1205
e 456 1205
e 730 1206
e 279 1206
e 735 1207
e 30 1207
e 735 1208
e 111 1208
e 735 1209
e 264 1209
e 735 1210
e 481 1210
e 740 1211
e 250 1211
e 740 1212
e 741 1212
e 744 1213
e 126 1213
e 744 1214
e 646 1214
e 744 1215
e 381 1215
e 744 1216
e 392 1216
e 749 1217
e 642 1217
e 749 1218
e 715 1218
e 752 1219
e 154 1219
e 752 1220
e 283 1220
e 755 1221
e 594 1221
e 755 1222
e 106 1222
e 758 1223
e 360 1223
e 758 1224
e 249 1224
e 761 1225
e 260 1225
e 761 1226
e 468 1226
e 764 1227
e 535 1227
e 764 1228
e 312 1228
e 767 1229
e 741 1229
e 767 1230
e 438 1230
e 767 1231
e 442 1231
e 767 1232
e 634 1232
e 772 1233
e 709 1233
e 772 1234
e 725 1234
e 772 1235
e 291 1235
e 772 1236
e 614 1236
e 777 1237
e 39 1237
e 777 1238
e 602 1238
e 780 1239
e 469 1239
e 780 1240
e 180 1240
e 780 1241
e 627 1241
e 780 1242
e 42 1242
e 785 1243
e 680 1243
e 785 1244
e 376 1244
e 788 1245
e 584 1245
e 788 1246
e 295 1246
e 788 1247
e 621 1247
e 788 1248
e 263 1248
e 793 1249
e 691 1249
e 793 1250
e 368 1250
e 796 1251
e 551 1251
e 796 1252
e 29 1252
e 796 1253
e 34 1253
e 796 1254
e 513 1254
e 801 1255
e 112 1255
e 801 1256
e 676 1256
e 804 1257
e 430 1257
e 804 1258
e 694 1258
e 807 1259
e 557 1259
e 807 1260
e 385 1260
e 810 1261
e 647 1261
e 810 1262
e 254 1262
e 810 1263
e 393 1263
e 810 1264
e 507 1264
e 815 1265
e 698 1265
e 815 1266
e 573 1266
e 815 1267
e 522 1267
e 815 1268
e 547 1268
e 820 1269
e 272 1269
e 820 1270
e 231 1270
e 823 1271
e 418 1271
e 823 1272
e 446 1272
e 1273 1274
e 460 1274
e 460 1275
e 208 1275
e 208 1276
e 209 1276
e 92 1277
e 93 1277
e 20 1278
e 21 1278
e 52 1279
e 59 1279
e 171 1280
e 172 1280
e 172 1281
e 185 1281
e 418 1282
e 446 1282
e 446 1283
e 447 1283
e 561 1284
e 698 1284
e 698 1285
e 573 1285
e 77 1286
e 78 1286
e 102 1287
e 87 1287
e 87 1288
e 88 1288
e 88 1289
e 498 1289
e 372 1290
e 125 1290
e 646 1291
e 647 1291
e 254 1292
e 255 1292
e 452 1293
e 473 1293
e 473 1294
e 316 1294
e 317 1295
e 120 1295
e 120 1296
e 121 1296
e 121 1297
e 557 1297
e 557 1298
e 385 1298
e 385 1299
e 222 1299
e 222 1300
e 68 1300
e 69 1301
e 401 1301
e 401 1302
e 490 1302
e 112 1303
e 676 1303
e 676 1304
e 38 1304
e 39 1305
e 602 1305
e 602 1306
e 139 1306
e 139 1307
e 140 1307
e 140 1308
e 163 1308
e 7 1309
e 341 1309
e 341 1310
e 404 1310
e 405 1311
e 598 1311
e 680 1312
e 376 1312
e 389 1313
e 199 1313
e 199 1314
e 200 1314
e 200 1315
e 535 1315
e 535 1316
e 312 1316
e 312 1317
e 82 1317
e 82 1318
e 83 1318
e 83 1319
e 288 1319
e 226 1320
e 227 1320
e 227 1321
e 425 1321
e 15 1322
e 16 1322
e 16 1323
e 204 1323
e 204 1324
e 608 1324
e 608 1325
e 691 1325
e 691 1326
e 368 1326
e 368 1327
e 213 1327
e 214 1328
e 47 1328
e 47 1329
e 48 1329
e 268 1330
e 259 1330
e 259 1331
e 260 1331
e 260 1332
e 468 1332
e 468 1333
e 469 1333
e 180 1334
e 181 1334
e 244 1335
e 245 1335
e 245 1336
e 272 1336
e 272 1337
e 231 1337
e 231 1338
e 148 1338
e 148 1339
e 149 1339
e 149 1340
e 642 1340
e 642 1341
e 715 1341
e 715 1342
e 434 1342
e 434 1343
e 63 1343
e 63 1344
e 64 1344
e 64 1345
e 195 1345
e 276 1346
e 325 1346
e 325 1347
e 326 1347
e 326 1348
e 360 1348
e 360 1349
e 249 1349
e 249 1350
e 250 1350
e 250 1351
e 741 1351
e 631 1352
e 709 1352
e 709 1353
e 725 1353
e 662 1354
e 97 1354
e 97 1355
e 98 1355
e 98 1356
e 397 1356
e 397 1357
e 134 1357
e 134 1358
e 135 1358
e 135 1359
e 352 1359
e 352 1360
e 584 1360
e 295 1361
e 176 1361
e 176 1362
e 153 1362
e 153 1363
e 154 1363
e 154 1364
e 283 1364
e 283 1365
e 284 1365
e 429 1366
e 430 1366
e 430 1367
e 694 1367
e 694 1368
e 521 1368
e 522 1369
e 547 1369
e 547 1370
e 485 1370
e 485 1371
e 486 1371
e 486 1372
e 702 1372
e 702 1373
e 587 1373
e 587 1374
e 356 1374
e 356 1375
e 158 1375
e 158 1376
e 159 1376
e 159 1377
e 594 1377
e 594 1378
e 106 1378
e 106 1379
e 107 1379
e 107 1380
e 143 1380
e 143 1381
e 144 1381
e 144 1382
e 364 1382
e 658 1383
e 3 1383
